NAME : ar9152
COMMENT : 9152 locations in Argentina
COMMENT : Derived from National Imagery and Mapping Agency data
TYPE : TSP
DIMENSION : 3
EDGE_WEIGHT_TYPE : EUC_2D
NODE_COORD_SECTION
1 39.966751 32.584229
2 39.925533 32.866287
3 39.990429 32.695547
EOF